HorasDisponibles = 24 ; 		% Cantidad de horas habiles para que barco pueda partir

NumBarcos = 136 ; 		% Cantidad de barcos que cruzaran el canal

NumCanales = 8;  

Velocidades = [ 
66000  ,		%  Barco 1
66000  ,		%  Barco 2
66000  ,		%  Barco 3
66000  ,		%  Barco 4
66000  ,		%  Barco 5
66000  ,		%  Barco 6
66000  ,		%  Barco 7
66000  ,		%  Barco 8
282  ,		%  Barco 9
302  ,		%  Barco 10
337  ,		%  Barco 11
380  ,		%  Barco 12
584  ,		%  Barco 13
864  ,		%  Barco 14
774  ,		%  Barco 15
345  ,		%  Barco 16
678  ,		%  Barco 17
683  ,		%  Barco 18
197  ,		%  Barco 19
303  ,		%  Barco 20
448  ,		%  Barco 21
537  ,		%  Barco 22
415  ,		%  Barco 23
504  ,		%  Barco 24
420  ,		%  Barco 25
558  ,		%  Barco 26
488  ,		%  Barco 27
543  ,		%  Barco 28
477  ,		%  Barco 29
466  ,		%  Barco 30
193  ,		%  Barco 31
358  ,		%  Barco 32
554  ,		%  Barco 33
468  ,		%  Barco 34
458  ,		%  Barco 35
530  ,		%  Barco 36
651  ,		%  Barco 37
772  ,		%  Barco 38
745  ,		%  Barco 39
189  ,		%  Barco 40
513  ,		%  Barco 41
448  ,		%  Barco 42
583  ,		%  Barco 43
591  ,		%  Barco 44
451  ,		%  Barco 45
590  ,		%  Barco 46
875  ,		%  Barco 47
707  ,		%  Barco 48
768  ,		%  Barco 49
528  ,		%  Barco 50
654  ,		%  Barco 51
388  ,		%  Barco 52
340  ,		%  Barco 53
559  ,		%  Barco 54
554  ,		%  Barco 55
487  ,		%  Barco 56
674  ,		%  Barco 57
536  ,		%  Barco 58
380  ,		%  Barco 59
325  ,		%  Barco 60
511  ,		%  Barco 61
545  ,		%  Barco 62
421  ,		%  Barco 63
413  ,		%  Barco 64
345  ,		%  Barco 65
328  ,		%  Barco 66
201  ,		%  Barco 67
433  ,		%  Barco 68
947  ,		%  Barco 69
806  ,		%  Barco 70
594  ,		%  Barco 71
443  ,		%  Barco 72
718  ,		%  Barco 73
336  ,		%  Barco 74
380  ,		%  Barco 75
524  ,		%  Barco 76
359  ,		%  Barco 77
327  ,		%  Barco 78
526  ,		%  Barco 79
477  ,		%  Barco 80
666  ,		%  Barco 81
369  ,		%  Barco 82
295  ,		%  Barco 83
457  ,		%  Barco 84
516  ,		%  Barco 85
298  ,		%  Barco 86
512  ,		%  Barco 87
659  ,		%  Barco 88
470  ,		%  Barco 89
660  ,		%  Barco 90
655  ,		%  Barco 91
550  ,		%  Barco 92
638  ,		%  Barco 93
579  ,		%  Barco 94
224  ,		%  Barco 95
496  ,		%  Barco 96
722  ,		%  Barco 97
399  ,		%  Barco 98
442  ,		%  Barco 99
408  ,		%  Barco 100
668  ,		%  Barco 101
582  ,		%  Barco 102
647  ,		%  Barco 103
471  ,		%  Barco 104
777  ,		%  Barco 105
537  ,		%  Barco 106
471  ,		%  Barco 107
745  ,		%  Barco 108
700  ,		%  Barco 109
531  ,		%  Barco 110
335  ,		%  Barco 111
416  ,		%  Barco 112
569  ,		%  Barco 113
378  ,		%  Barco 114
507  ,		%  Barco 115
531  ,		%  Barco 116
434  ,		%  Barco 117
593  ,		%  Barco 118
525  ,		%  Barco 119
567  ,		%  Barco 120
525  ,		%  Barco 121
320  ,		%  Barco 122
446  ,		%  Barco 123
552  ,		%  Barco 124
211  ,		%  Barco 125
470  ,		%  Barco 126
412  ,		%  Barco 127
409  ,		%  Barco 128
645  ,		%  Barco 129
683  ,		%  Barco 130
493  ,		%  Barco 131
312  ,		%  Barco 132
579  ,		%  Barco 133
705  ,		%  Barco 134
562  ,		%  Barco 135
526  ,		%  Barco 136
616  ,		%  Barco 137
550  ,		%  Barco 138
378  ,		%  Barco 139
437  ,		%  Barco 140
626  ,		%  Barco 141
344  ,		%  Barco 142
363  ,		%  Barco 143
420  ,		%  Barco 144
66000  ,		%  Barco 145
66000  ,		%  Barco 146
66000  ,		%  Barco 147
66000  ,		%  Barco 148
66000  ,		%  Barco 149
66000  ,		%  Barco 150
66000  ,		%  Barco 151
66000  ,		%  Barco 152
 ]; 
HoraEstimadaCruce = [ 
0  ,		%  Barco 1
0  ,		%  Barco 2
0  ,		%  Barco 3
0  ,		%  Barco 4
0  ,		%  Barco 5
0  ,		%  Barco 6
0  ,		%  Barco 7
0  ,		%  Barco 8
16  ,		%  Barco 9
6  ,		%  Barco 10
3  ,		%  Barco 11
7  ,		%  Barco 12
1  ,		%  Barco 13
24  ,		%  Barco 14
19  ,		%  Barco 15
0  ,		%  Barco 16
5  ,		%  Barco 17
11  ,		%  Barco 18
17  ,		%  Barco 19
23  ,		%  Barco 20
7  ,		%  Barco 21
3  ,		%  Barco 22
11  ,		%  Barco 23
22  ,		%  Barco 24
10  ,		%  Barco 25
7  ,		%  Barco 26
5  ,		%  Barco 27
16  ,		%  Barco 28
20  ,		%  Barco 29
4  ,		%  Barco 30
1  ,		%  Barco 31
7  ,		%  Barco 32
23  ,		%  Barco 33
17  ,		%  Barco 34
7  ,		%  Barco 35
9  ,		%  Barco 36
15  ,		%  Barco 37
22  ,		%  Barco 38
8  ,		%  Barco 39
19  ,		%  Barco 40
17  ,		%  Barco 41
6  ,		%  Barco 42
4  ,		%  Barco 43
6  ,		%  Barco 44
20  ,		%  Barco 45
17  ,		%  Barco 46
8  ,		%  Barco 47
2  ,		%  Barco 48
19  ,		%  Barco 49
20  ,		%  Barco 50
7  ,		%  Barco 51
20  ,		%  Barco 52
24  ,		%  Barco 53
3  ,		%  Barco 54
10  ,		%  Barco 55
5  ,		%  Barco 56
13  ,		%  Barco 57
6  ,		%  Barco 58
15  ,		%  Barco 59
6  ,		%  Barco 60
22  ,		%  Barco 61
13  ,		%  Barco 62
1  ,		%  Barco 63
13  ,		%  Barco 64
2  ,		%  Barco 65
19  ,		%  Barco 66
17  ,		%  Barco 67
19  ,		%  Barco 68
16  ,		%  Barco 69
18  ,		%  Barco 70
19  ,		%  Barco 71
1  ,		%  Barco 72
19  ,		%  Barco 73
12  ,		%  Barco 74
17  ,		%  Barco 75
24  ,		%  Barco 76
6  ,		%  Barco 77
7  ,		%  Barco 78
19  ,		%  Barco 79
6  ,		%  Barco 80
3  ,		%  Barco 81
7  ,		%  Barco 82
0  ,		%  Barco 83
8  ,		%  Barco 84
6  ,		%  Barco 85
10  ,		%  Barco 86
17  ,		%  Barco 87
15  ,		%  Barco 88
4  ,		%  Barco 89
2  ,		%  Barco 90
13  ,		%  Barco 91
2  ,		%  Barco 92
5  ,		%  Barco 93
16  ,		%  Barco 94
21  ,		%  Barco 95
9  ,		%  Barco 96
18  ,		%  Barco 97
23  ,		%  Barco 98
4  ,		%  Barco 99
11  ,		%  Barco 100
24  ,		%  Barco 101
12  ,		%  Barco 102
22  ,		%  Barco 103
13  ,		%  Barco 104
22  ,		%  Barco 105
0  ,		%  Barco 106
17  ,		%  Barco 107
9  ,		%  Barco 108
0  ,		%  Barco 109
14  ,		%  Barco 110
5  ,		%  Barco 111
17  ,		%  Barco 112
10  ,		%  Barco 113
14  ,		%  Barco 114
12  ,		%  Barco 115
5  ,		%  Barco 116
24  ,		%  Barco 117
3  ,		%  Barco 118
4  ,		%  Barco 119
6  ,		%  Barco 120
10  ,		%  Barco 121
6  ,		%  Barco 122
4  ,		%  Barco 123
22  ,		%  Barco 124
19  ,		%  Barco 125
7  ,		%  Barco 126
14  ,		%  Barco 127
11  ,		%  Barco 128
17  ,		%  Barco 129
23  ,		%  Barco 130
4  ,		%  Barco 131
9  ,		%  Barco 132
16  ,		%  Barco 133
0  ,		%  Barco 134
4  ,		%  Barco 135
10  ,		%  Barco 136
20  ,		%  Barco 137
10  ,		%  Barco 138
16  ,		%  Barco 139
11  ,		%  Barco 140
17  ,		%  Barco 141
22  ,		%  Barco 142
14  ,		%  Barco 143
21  ,		%  Barco 144
24  ,		%  Barco 145
24  ,		%  Barco 146
24  ,		%  Barco 147
24  ,		%  Barco 148
24  ,		%  Barco 149
24  ,		%  Barco 150
24  ,		%  Barco 151
24  ,		%  Barco 152
 ]; 
PuntoDeArranque = [ 
0  ,		%  Barco 1
0  ,		%  Barco 2
0  ,		%  Barco 3
0  ,		%  Barco 4
0  ,		%  Barco 5
0  ,		%  Barco 6
0  ,		%  Barco 7
0  ,		%  Barco 8
1  ,		%  Barco 9
0  ,		%  Barco 10
1  ,		%  Barco 11
1  ,		%  Barco 12
0  ,		%  Barco 13
1  ,		%  Barco 14
0  ,		%  Barco 15
1  ,		%  Barco 16
0  ,		%  Barco 17
1  ,		%  Barco 18
1  ,		%  Barco 19
0  ,		%  Barco 20
0  ,		%  Barco 21
0  ,		%  Barco 22
0  ,		%  Barco 23
1  ,		%  Barco 24
1  ,		%  Barco 25
0  ,		%  Barco 26
0  ,		%  Barco 27
0  ,		%  Barco 28
0  ,		%  Barco 29
0  ,		%  Barco 30
1  ,		%  Barco 31
1  ,		%  Barco 32
0  ,		%  Barco 33
0  ,		%  Barco 34
0  ,		%  Barco 35
1  ,		%  Barco 36
0  ,		%  Barco 37
1  ,		%  Barco 38
0  ,		%  Barco 39
0  ,		%  Barco 40
1  ,		%  Barco 41
0  ,		%  Barco 42
1  ,		%  Barco 43
0  ,		%  Barco 44
0  ,		%  Barco 45
0  ,		%  Barco 46
0  ,		%  Barco 47
1  ,		%  Barco 48
1  ,		%  Barco 49
0  ,		%  Barco 50
1  ,		%  Barco 51
1  ,		%  Barco 52
1  ,		%  Barco 53
1  ,		%  Barco 54
0  ,		%  Barco 55
1  ,		%  Barco 56
0  ,		%  Barco 57
0  ,		%  Barco 58
0  ,		%  Barco 59
0  ,		%  Barco 60
0  ,		%  Barco 61
1  ,		%  Barco 62
0  ,		%  Barco 63
1  ,		%  Barco 64
0  ,		%  Barco 65
1  ,		%  Barco 66
0  ,		%  Barco 67
1  ,		%  Barco 68
1  ,		%  Barco 69
1  ,		%  Barco 70
0  ,		%  Barco 71
1  ,		%  Barco 72
1  ,		%  Barco 73
1  ,		%  Barco 74
1  ,		%  Barco 75
0  ,		%  Barco 76
0  ,		%  Barco 77
1  ,		%  Barco 78
0  ,		%  Barco 79
0  ,		%  Barco 80
0  ,		%  Barco 81
0  ,		%  Barco 82
0  ,		%  Barco 83
1  ,		%  Barco 84
1  ,		%  Barco 85
1  ,		%  Barco 86
1  ,		%  Barco 87
0  ,		%  Barco 88
1  ,		%  Barco 89
1  ,		%  Barco 90
0  ,		%  Barco 91
0  ,		%  Barco 92
0  ,		%  Barco 93
1  ,		%  Barco 94
1  ,		%  Barco 95
1  ,		%  Barco 96
1  ,		%  Barco 97
0  ,		%  Barco 98
1  ,		%  Barco 99
0  ,		%  Barco 100
0  ,		%  Barco 101
0  ,		%  Barco 102
0  ,		%  Barco 103
0  ,		%  Barco 104
0  ,		%  Barco 105
1  ,		%  Barco 106
1  ,		%  Barco 107
1  ,		%  Barco 108
1  ,		%  Barco 109
1  ,		%  Barco 110
1  ,		%  Barco 111
0  ,		%  Barco 112
0  ,		%  Barco 113
0  ,		%  Barco 114
0  ,		%  Barco 115
1  ,		%  Barco 116
1  ,		%  Barco 117
0  ,		%  Barco 118
0  ,		%  Barco 119
0  ,		%  Barco 120
0  ,		%  Barco 121
1  ,		%  Barco 122
0  ,		%  Barco 123
1  ,		%  Barco 124
1  ,		%  Barco 125
1  ,		%  Barco 126
0  ,		%  Barco 127
0  ,		%  Barco 128
0  ,		%  Barco 129
0  ,		%  Barco 130
1  ,		%  Barco 131
1  ,		%  Barco 132
1  ,		%  Barco 133
1  ,		%  Barco 134
0  ,		%  Barco 135
0  ,		%  Barco 136
1  ,		%  Barco 137
0  ,		%  Barco 138
0  ,		%  Barco 139
0  ,		%  Barco 140
0  ,		%  Barco 141
0  ,		%  Barco 142
1  ,		%  Barco 143
0  ,		%  Barco 144
0  ,		%  Barco 145
0  ,		%  Barco 146
0  ,		%  Barco 147
0  ,		%  Barco 148
0  ,		%  Barco 149
0  ,		%  Barco 150
0  ,		%  Barco 151
0  ,		%  Barco 152
 ]; 
